50
    1   415   415
    2   152   152
    3   464   464
    4   460   460
    5   874   874
    6   434   434
    7   895   895
    8   874   874
    9   748   748
   10   379   379
   11   437   437
   12   407   407
   13   429   429
   14   963   963
   15   543   543
   16   145   145
   17   861   861
   18   544   544
   19   878   878
   20    64    64
   21   355   355
   22     9     9
   23   383   383
   24    57    57
   25   716   716
   26   205   205
   27   184   184
   28   472   472
   29    28    28
   30   313   313
   31   128   128
   32   426   426
   33   725   725
   34   488   488
   35   940   940
   36   432   432
   37   889   889
   38   212   212
   39   530   530
   40    39    39
   41    53    53
   42   275   275
   43   723   723
   44   781   781
   45   876   876
   46   926   926
   47   754   754
   48   958   958
   49   940   940
   50   123   123
20755
